language Essence 1.3

letting blksize_delta be
        function(1 --> 9, 2 --> 6, 3 --> 6, 4 --> 6, 5 --> 6, 6 --> 6, 7 --> 6, 8 --> 6, 9 --> 6, 10 --> 6, 11 --> 6,
                 12 --> 6, 13 --> 6, 14 --> 6, 15 --> 6, 16 --> 6, 17 --> 6, 18 --> 8, 19 --> 6, 20 --> 6, 21 --> 6,
                 22 --> 6, 23 --> 6)
letting maxcars be
        function(1 --> 9, 2 --> 8, 3 --> 8, 4 --> 8, 5 --> 8, 6 --> 8, 7 --> 8, 8 --> 8, 9 --> 8, 10 --> 8, 11 --> 8,
                 12 --> 9, 13 --> 8, 14 --> 8, 15 --> 10, 16 --> 8, 17 --> 8, 18 --> 8, 19 --> 8, 20 --> 8, 21 --> 8,
                 22 --> 8, 23 --> 8)
letting n_cars be 187
letting n_classes be 61
letting n_options be 23
letting quantity be
        function(1 --> 3, 2 --> 3, 3 --> 3, 4 --> 6, 5 --> 3, 6 --> 3, 7 --> 3, 8 --> 3, 9 --> 3, 10 --> 3, 11 --> 3,
                 12 --> 3, 13 --> 4, 14 --> 3, 15 --> 3, 16 --> 3, 17 --> 3, 18 --> 3, 19 --> 3, 20 --> 3, 21 --> 3,
                 22 --> 3, 23 --> 3, 24 --> 3, 25 --> 3, 26 --> 3, 27 --> 3, 28 --> 3, 29 --> 3, 30 --> 3, 31 --> 3,
                 32 --> 3, 33 --> 3, 34 --> 3, 35 --> 3, 36 --> 3, 37 --> 3, 38 --> 3, 39 --> 3, 40 --> 3, 41 --> 3,
                 42 --> 3, 43 --> 3, 44 --> 3, 45 --> 3, 46 --> 3, 47 --> 3, 48 --> 3, 49 --> 3, 50 --> 3, 51 --> 3,
                 52 --> 3, 53 --> 3, 54 --> 3, 55 --> 3, 56 --> 3, 57 --> 3, 58 --> 3, 59 --> 3, 60 --> 3, 61 --> 3)
letting usage be
        relation((1, 2), (1, 6), (1, 8), (1, 11), (2, 1), (2, 23), (3, 23), (4, 2), (4, 8), (4, 10), (4, 11), (4, 20),
                 (5, 15), (6, 4), (6, 15), (6, 19), (7, 14), (7, 19), (8, 1), (8, 4), (8, 9), (8, 21), (9, 3), (9, 4),
                 (9, 6), (9, 20), (10, 3), (10, 4), (10, 10), (10, 11), (10, 14), (11, 5), (11, 22), (12, 19), (13, 5),
                 (13, 13), (13, 18), (13, 22), (13, 23), (14, 3), (14, 22), (15, 9), (16, 19), (17, 4), (17, 5),
                 (17, 16), (17, 20), (18, 3), (18, 18), (19, 4), (19, 6), (19, 8), (19, 13), (20, 1), (20, 20),
                 (20, 23), (21, 14), (21, 17), (21, 23), (22, 8), (22, 12), (22, 16), (22, 23), (23, 5), (23, 6),
                 (23, 10), (24, 19), (25, 3), (25, 5), (26, 23), (27, 3), (27, 4), (27, 6), (27, 7), (28, 7), (29, 3),
                 (29, 10), (30, 2), (30, 11), (31, 6), (31, 7), (31, 13), (31, 21), (32, 15), (33, 1), (33, 3), (33, 7),
                 (33, 18), (34, 18), (35, 4), (35, 9), (35, 10), (35, 18), (35, 22), (36, 11), (36, 15), (36, 18),
                 (37, 20), (37, 21), (38, 5), (39, 3), (40, 4), (40, 9), (40, 21), (41, 5), (41, 6), (42, 23), (43, 13),
                 (43, 17), (44, 11), (44, 16), (44, 21), (44, 22), (45, 23), (46, 23), (47, 1), (47, 2), (47, 16),
                 (47, 21), (48, 2), (48, 5), (48, 8), (48, 11), (48, 22), (48, 23), (49, 1), (49, 8), (49, 18),
                 (49, 19), (50, 5), (50, 9), (50, 11), (51, 23), (52, 23), (53, 2), (54, 11), (55, 13), (55, 17),
                 (56, 9), (56, 15), (56, 19), (56, 20), (57, 2), (57, 4), (58, 21), (59, 23), (60, 22), (61, 4),
                 (61, 11), (61, 19))
$ Visualisation for usage
$  1  2
$  1  6
$  1  8
$  1 11
$  2  1
$  2 23
$  3 23
$  4  2
$  4  8
$  4 10
$  4 11
$  4 20
$  5 15
$  6  4
$  6 15
$  6 19
$  7 14
$  7 19
$  8  1
$  8  4
$  8  9
$  8 21
$  9  3
$  9  4
$  9  6
$  9 20
$ 10  3
$ 10  4
$ 10 10
$ 10 11
$ 10 14
$ 11  5
$ 11 22
$ 12 19
$ 13  5
$ 13 13
$ 13 18
$ 13 22
$ 13 23
$ 14  3
$ 14 22
$ 15  9
$ 16 19
$ 17  4
$ 17  5
$ 17 16
$ 17 20
$ 18  3
$ 18 18
$ 19  4
$ 19  6
$ 19  8
$ 19 13
$ 20  1
$ 20 20
$ 20 23
$ 21 14
$ 21 17
$ 21 23
$ 22  8
$ 22 12
$ 22 16
$ 22 23
$ 23  5
$ 23  6
$ 23 10
$ 24 19
$ 25  3
$ 25  5
$ 26 23
$ 27  3
$ 27  4
$ 27  6
$ 27  7
$ 28  7
$ 29  3
$ 29 10
$ 30  2
$ 30 11
$ 31  6
$ 31  7
$ 31 13
$ 31 21
$ 32 15
$ 33  1
$ 33  3
$ 33  7
$ 33 18
$ 34 18
$ 35  4
$ 35  9
$ 35 10
$ 35 18
$ 35 22
$ 36 11
$ 36 15
$ 36 18
$ 37 20
$ 37 21
$ 38  5
$ 39  3
$ 40  4
$ 40  9
$ 40 21
$ 41  5
$ 41  6
$ 42 23
$ 43 13
$ 43 17
$ 44 11
$ 44 16
$ 44 21
$ 44 22
$ 45 23
$ 46 23
$ 47  1
$ 47  2
$ 47 16
$ 47 21
$ 48  2
$ 48  5
$ 48  8
$ 48 11
$ 48 22
$ 48 23
$ 49  1
$ 49  8
$ 49 18
$ 49 19
$ 50  5
$ 50  9
$ 50 11
$ 51 23
$ 52 23
$ 53  2
$ 54 11
$ 55 13
$ 55 17
$ 56  9
$ 56 15
$ 56 19
$ 56 20
$ 57  2
$ 57  4
$ 58 21
$ 59 23
$ 60 22
$ 61  4
$ 61 11
$ 61 19

